NAME          ClpDefau  FREE
ROWS
 N  OBJROW
 G  HG1_R1
 G  HG1_R3
 G  HG1_R5
 G  HG1_R7
 G  HG1_R9
 G  HG1_R11
 G  HG1_R13
 G  HG1_R15
 G  HG1_R17
 G  HG1_R19
 G  HG2_R1
 G  HG2_R3
 G  HG2_R5
 G  HG2_R7
 G  HG2_R9
 G  HG2_R11
 G  HG2_R13
 G  HG2_R15
 G  HG2_R17
 G  HG2_R19
 G  VG1_R1
 G  VG1_R3
 G  VG1_R5
 G  VG1_R7
 G  VG1_R9
 G  VG1_R11
 G  VG1_R13
 G  VG1_R15
 G  VG1_R17
 G  VG1_R19
 L  WL_L1_R07_C27
 L  WL_L1_R11_C27
 L  WL_L1_R15_C27
 G  GREATER_SUM
COLUMNS
    W1 OBJROW 1.          
    W1 HG1_R1   -1.5685e-7
    W1 HG1_R3    -1.563e-7
    W1 HG1_R5     -1.55e-7
    W1 HG1_R7    -1.528e-7
    W1 HG1_R9    -1.499e-7
    W1 HG1_R11   -1.4645e-7
    W1 HG1_R13    -1.429e-7
    W1 HG1_R15    -1.396e-7
    W1 HG1_R17   -1.3705e-7
    W1 HG1_R19   -1.3555e-7
    W1 HG2_R1   -1.5515e-7
    W1 HG2_R3    -1.546e-7
    W1 HG2_R5   -1.5335e-7
    W1 HG2_R7   -1.5125e-7
    W1 HG2_R9    -1.484e-7
    W1 HG2_R11     -1.45e-7
    W1 HG2_R13    -1.414e-7
    W1 HG2_R15    -1.382e-7
    W1 HG2_R17   -1.3565e-7
    W1 HG2_R19   -1.3415e-7
    W1 VG1_R1    -1.856e-6
    W1 VG1_R3    -1.848e-6
    W1 VG1_R5    -1.832e-6
    W1 VG1_R7    -1.802e-6
    W1 VG1_R9    -1.764e-6
    W1 VG1_R11     -1.72e-6
    W1 VG1_R13   -1.6762e-6
    W1 VG1_R15   -1.6372e-6
    W1 VG1_R17   -1.6078e-6
    W1 VG1_R19   -1.5924e-6
    W1 WL_L1_R07_C27 -0.00012002 
    W1 WL_L1_R11_C27 -0.00011502 
    W1 WL_L1_R15_C27 -0.00010954 
    W1 GREATER_SUM 1.          
    W2 OBJROW 1.          
    W2 HG1_R1    -1.466e-7
    W2 HG1_R3   -1.4705e-7
    W2 HG1_R5   -1.4785e-7
    W2 HG1_R7    -1.486e-7
    W2 HG1_R9   -1.4895e-7
    W2 HG1_R11    -1.485e-7
    W2 HG1_R13   -1.4735e-7
    W2 HG1_R15   -1.4575e-7
    W2 HG1_R17   -1.4415e-7
    W2 HG1_R19    -1.431e-7
    W2 HG2_R1   -1.4505e-7
    W2 HG2_R3   -1.4545e-7
    W2 HG2_R5    -1.463e-7
    W2 HG2_R7    -1.471e-7
    W2 HG2_R9    -1.474e-7
    W2 HG2_R11     -1.47e-7
    W2 HG2_R13   -1.4585e-7
    W2 HG2_R15   -1.4425e-7
    W2 HG2_R17    -1.427e-7
    W2 HG2_R19   -1.4165e-7
    W2 VG1_R1    -1.736e-6
    W2 VG1_R3     -1.74e-6
    W2 VG1_R5    -1.748e-6
    W2 VG1_R7    -1.752e-6
    W2 VG1_R9    -1.752e-6
    W2 VG1_R11    -1.744e-6
    W2 VG1_R13   -1.7282e-6
    W2 VG1_R15   -1.7088e-6
    W2 VG1_R17    -1.691e-6
    W2 VG1_R19   -1.6814e-6
    W2 WL_L1_R07_C27 -0.00011668 
    W2 WL_L1_R11_C27 -0.0001167  
    W2 WL_L1_R15_C27 -0.00011442 
    W2 GREATER_SUM 1.          
    W3 OBJROW 1.          
    W3 HG1_R1   -1.4465e-7
    W3 HG1_R3   -1.4585e-7
    W3 HG1_R5    -1.482e-7
    W3 HG1_R7   -1.5065e-7
    W3 HG1_R9   -1.5205e-7
    W3 HG1_R11    -1.515e-7
    W3 HG1_R13   -1.4895e-7
    W3 HG1_R15    -1.453e-7
    W3 HG1_R17    -1.418e-7
    W3 HG1_R19   -1.3945e-7
    W3 HG2_R1    -1.431e-7
    W3 HG2_R3    -1.443e-7
    W3 HG2_R5   -1.4665e-7
    W3 HG2_R7    -1.491e-7
    W3 HG2_R9    -1.505e-7
    W3 HG2_R11      -1.5e-7
    W3 HG2_R13   -1.4745e-7
    W3 HG2_R15   -1.4385e-7
    W3 HG2_R17   -1.4035e-7
    W3 HG2_R19   -1.3805e-7
    W3 VG1_R1    -1.712e-6
    W3 VG1_R3    -1.726e-6
    W3 VG1_R5    -1.752e-6
    W3 VG1_R7    -1.776e-6
    W3 VG1_R9    -1.788e-6
    W3 VG1_R11    -1.779e-6
    W3 VG1_R13   -1.7472e-6
    W3 VG1_R15   -1.7038e-6
    W3 VG1_R17   -1.6632e-6
    W3 VG1_R19   -1.6384e-6
    W3 WL_L1_R07_C27 -0.00011834 
    W3 WL_L1_R11_C27 -0.00011916 
    W3 WL_L1_R15_C27 -0.00011408 
    W3 GREATER_SUM 1.          
    W4 OBJROW 1.          
    W4 HG1_R1     -1.36e-7
    W4 HG1_R3    -1.373e-7
    W4 HG1_R5   -1.4015e-7
    W4 HG1_R7   -1.4385e-7
    W4 HG1_R9   -1.4765e-7
    W4 HG1_R11    -1.507e-7
    W4 HG1_R13    -1.523e-7
    W4 HG1_R15   -1.5245e-7
    W4 HG1_R17   -1.5175e-7
    W4 HG1_R19     -1.51e-7
    W4 HG2_R1   -1.3455e-7
    W4 HG2_R3   -1.3585e-7
    W4 HG2_R5   -1.3865e-7
    W4 HG2_R7   -1.4235e-7
    W4 HG2_R9   -1.4615e-7
    W4 HG2_R11    -1.492e-7
    W4 HG2_R13   -1.5075e-7
    W4 HG2_R15    -1.509e-7
    W4 HG2_R17    -1.502e-7
    W4 HG2_R19    -1.495e-7
    W4 VG1_R1     -1.61e-6
    W4 VG1_R3    -1.624e-6
    W4 VG1_R5    -1.656e-6
    W4 VG1_R7    -1.696e-6
    W4 VG1_R9    -1.736e-6
    W4 VG1_R11   -1.7696e-6
    W4 VG1_R13   -1.7862e-6
    W4 VG1_R15   -1.7874e-6
    W4 VG1_R17     -1.78e-6
    W4 VG1_R19   -1.7742e-6
    W4 WL_L1_R07_C27 -0.00011288 
    W4 WL_L1_R11_C27 -0.00011848 
    W4 WL_L1_R15_C27 -0.0001198  
    W4 GREATER_SUM 1.          
    W5 OBJROW 1.          
    W5 HG1_R1    -2.697e-7
    W5 HG1_R3   -2.7145e-7
    W5 HG1_R5    -2.754e-7
    W5 HG1_R7    -2.811e-7
    W5 HG1_R9    -2.881e-7
    W5 HG1_R11    -2.956e-7
    W5 HG1_R13    -3.028e-7
    W5 HG1_R15    -3.089e-7
    W5 HG1_R17   -3.1335e-7
    W5 HG1_R19    -3.159e-7
    W5 HG2_R1   -2.6685e-7
    W5 HG2_R3    -2.686e-7
    W5 HG2_R5   -2.7255e-7
    W5 HG2_R7   -2.7825e-7
    W5 HG2_R9    -2.852e-7
    W5 HG2_R11   -2.9265e-7
    W5 HG2_R13    -2.997e-7
    W5 HG2_R15    -3.058e-7
    W5 HG2_R17   -3.1015e-7
    W5 HG2_R19    -3.127e-7
    W5 VG1_R1     -3.19e-6
    W5 VG1_R3    -3.208e-6
    W5 VG1_R5    -3.252e-6
    W5 VG1_R7    -3.312e-6
    W5 VG1_R9   -3.3856e-6
    W5 VG1_R11   -3.4666e-6
    W5 VG1_R13    -3.546e-6
    W5 VG1_R15   -3.6166e-6
    W5 VG1_R17   -3.6712e-6
    W5 VG1_R19   -3.7052e-6
    W5 WL_L1_R07_C27 -0.00022054 
    W5 WL_L1_R11_C27 -0.00023218 
    W5 WL_L1_R15_C27 -0.00024272 
    W5 GREATER_SUM 1.          
    I1 OBJROW  -1.        
    I1 HG1_R1     1.806e-7
    I1 HG1_R3    2.4545e-7
    I1 HG1_R5     4.896e-7
    I1 HG1_R7    1.1251e-6
    I1 HG1_R9     4.775e-7
    I1 HG1_R11    2.1705e-7
    I1 HG1_R13     1.247e-7
    I1 HG1_R15      8.65e-8
    I1 HG1_R17     6.895e-8
    I1 HG1_R19      6.13e-8
    I1 HG2_R1    1.7875e-7
    I1 HG2_R3    2.4305e-7
    I1 HG2_R5    4.8485e-7
    I1 HG2_R7   1.08155e-6
    I1 HG2_R9     4.729e-7
    I1 HG2_R11    2.1495e-7
    I1 HG2_R13     1.235e-7
    I1 HG2_R15     8.565e-8
    I1 HG2_R17     6.825e-8
    I1 HG2_R19     6.065e-8
    I1 VG1_R1     2.148e-6
    I1 VG1_R3     2.926e-6
    I1 VG1_R5     5.846e-6
    I1 VG1_R7    1.3204e-5
    I1 VG1_R9     5.678e-6
    I1 VG1_R11     2.566e-6
    I1 VG1_R13     1.468e-6
    I1 VG1_R15     1.018e-6
    I1 VG1_R17      8.12e-7
    I1 VG1_R19      7.22e-7
    I1 WL_L1_R07_C27 0.001455    
    I1 WL_L1_R11_C27 0.0001551   
    I1 WL_L1_R15_C27       6.6e-5
    I1 GREATER_SUM  -1.        
    I2 OBJROW  -1.        
    I2 HG1_R1      8.37e-8
    I2 HG1_R3      9.47e-8
    I2 HG1_R5    1.2835e-7
    I2 HG1_R7      2.17e-7
    I2 HG1_R9    4.7375e-7
    I2 HG1_R11   1.11685e-6
    I2 HG1_R13    4.7495e-7
    I2 HG1_R15    2.1955e-7
    I2 HG1_R17     1.329e-7
    I2 HG1_R19    1.0245e-7
    I2 HG2_R1     8.285e-8
    I2 HG2_R3     9.375e-8
    I2 HG2_R5    1.2705e-7
    I2 HG2_R7     2.149e-7
    I2 HG2_R9    4.6925e-7
    I2 HG2_R11    1.0738e-6
    I2 HG2_R13     4.705e-7
    I2 HG2_R15     2.175e-7
    I2 HG2_R17     1.316e-7
    I2 HG2_R19     1.014e-7
    I2 VG1_R1      9.94e-7
    I2 VG1_R3     1.124e-6
    I2 VG1_R5     1.524e-6
    I2 VG1_R7     2.578e-6
    I2 VG1_R9     5.634e-6
    I2 VG1_R11    1.3044e-5
    I2 VG1_R13     5.626e-6
    I2 VG1_R15     2.592e-6
    I2 VG1_R17     1.568e-6
    I2 VG1_R19     1.208e-6
    I2 WL_L1_R07_C27 0.00015502  
    I2 WL_L1_R11_C27 0.00145048  
    I2 WL_L1_R15_C27 0.00015706  
    I2 GREATER_SUM  -1.        
    I3 OBJROW  -1.        
    I3 HG1_R1     5.535e-8
    I3 HG1_R3      5.87e-8
    I3 HG1_R5     6.775e-8
    I3 HG1_R7      8.65e-8
    I3 HG1_R9    1.2585e-7
    I3 HG1_R11    2.1955e-7
    I3 HG1_R13      4.82e-7
    I3 HG1_R15   1.13275e-6
    I3 HG1_R17     5.034e-7
    I3 HG1_R19     2.718e-7
    I3 HG2_R1      5.48e-8
    I3 HG2_R3      5.81e-8
    I3 HG2_R5     6.705e-8
    I3 HG2_R7      8.56e-8
    I3 HG2_R9     1.246e-7
    I3 HG2_R11     2.175e-7
    I3 HG2_R13     4.775e-7
    I3 HG2_R15    1.0897e-6
    I3 HG2_R17    4.9865e-7
    I3 HG2_R19     2.692e-7
    I3 VG1_R1      6.56e-7
    I3 VG1_R3      6.96e-7
    I3 VG1_R5      8.02e-7
    I3 VG1_R7     1.024e-6
    I3 VG1_R9     1.488e-6
    I3 VG1_R11     2.596e-6
    I3 VG1_R13      5.71e-6
    I3 VG1_R15    1.3218e-5
    I3 VG1_R17     5.972e-6
    I3 VG1_R19     3.216e-6
    I3 WL_L1_R07_C27     6.596e-5
    I3 WL_L1_R11_C27 0.00015704  
    I3 WL_L1_R15_C27 0.0014629   
    I3 GREATER_SUM  -1.        
RHS
    RHS HG1_R1 -0.0023738  
    RHS HG1_R3 -0.0023571  
    RHS HG1_R5 -0.0023182  
    RHS HG1_R7 -0.0022587  
    RHS HG1_R9 -0.002185675
    RHS HG1_R11 -0.002116375
    RHS HG1_R13 -0.0020761  
    RHS HG1_R15 -0.002078025
    RHS HG1_R17 -0.002106   
    RHS HG1_R19 -0.002132175
    RHS HG2_R1 -0.002246525
    RHS HG2_R3 -0.00223    
    RHS HG2_R5 -0.002191525
    RHS HG2_R7 -0.002132675
    RHS HG2_R9 -0.002060425
    RHS HG2_R11 -0.001991875
    RHS HG2_R13 -0.001952   
    RHS HG2_R15 -0.0019539  
    RHS HG2_R17 -0.00198155 
    RHS HG2_R19 -0.00200745 
    RHS VG1_R1 -0.053533   
    RHS VG1_R3 -0.053335   
    RHS VG1_R5 -0.052875   
    RHS VG1_R7 -0.052172   
    RHS VG1_R9 -0.051312   
    RHS VG1_R11 -0.050499   
    RHS VG1_R13 -0.050027   
    RHS VG1_R15 -0.050048   
    RHS VG1_R17 -0.050374   
    RHS VG1_R19 -0.050681   
    RHS WL_L1_R07_C27 0.37103     
    RHS WL_L1_R11_C27 0.48707     
    RHS WL_L1_R15_C27 0.5169      
BOUNDS
 UP BOUND W1 10000.      
 UP BOUND W2 10000.      
 UP BOUND W3 10000.      
 UP BOUND W4 10000.      
 UP BOUND W5 10000.      
 UP BOUND I1 10000.      
 UP BOUND I2 10000.      
 UP BOUND I3 10000.      
ENDATA
